;; sat

(declare-const x1 sl.list.loc)
(declare-const x2 sl.list.loc)
(declare-const x3 sl.list.loc)
(declare-const x4 sl.list.loc)
(declare-const x5 sl.list.loc)
(declare-const x6 sl.list.loc)
(declare-const x7 sl.list.loc)
(declare-const x8 sl.list.loc)
(declare-const x9 sl.list.loc)
(declare-const x10 sl.list.loc)
(declare-const x11 sl.list.loc)
(declare-const x12 sl.list.loc)
(declare-const x13 sl.list.loc)
(declare-const x14 sl.list.loc)
(declare-const x15 sl.list.loc)

(assert (and (sl.sepcon (sl.list.eq sl.list.null sl.list.null)
 (sl.sepcon (sl.sepcon (sl.sepcon (sl.sepcon (sl.sepcon (sl.sepcon (sl.sepcon (sl.sepcon (sl.sepcon (sl.sepcon (sl.sepcon (sl.sepcon (sl.sepcon (sl.sepcon (sl.list.seg x3 x1)
 (sl.list.seg x13 x14)
)
 (sl.list.next x15 x3)
)
 (sl.list.next x6 x13)
)
 (sl.list.next x8 x15)
)
 (sl.list.seg x9 x13)
)
 (sl.list.next x7 x11)
)
 (sl.list.next x2 x7)
)
 (sl.list.next x10 x14)
)
 (sl.list.seg x11 x3)
)
 (sl.list.next x12 x9)
)
 (sl.list.seg x4 x6)
)
 (sl.list.next x1 x12)
)
 (sl.list.next x14 x11)
)
 (sl.list.seg x5 x11)
)
)
 (not (sl.sepcon (sl.sepcon (sl.sepcon (sl.sepcon (sl.sepcon (sl.sepcon (sl.sepcon (sl.list.seg x10 x14)
 (sl.list.seg x9 x13)
)
 (sl.list.seg x2 x7)
)
 (sl.list.seg x7 x11)
)
 (sl.list.seg x8 x15)
)
 (sl.list.seg x15 x3)
)
 (sl.list.seg x5 x11)
)
 (sl.list.seg x4 x9)
)
))
)

